# Strimko Set #002
param n := 7;

# represent the different streams with integer 1..n
param streams: 1 2 3 4 5 6 7:=
  1   1 1 2 2 2 2 2 
  2   1 1 2 3 3 3 2 
  3   1 4 1 3 3 5 5 
  4   4 4 3 1 3 5 5 
  5   4 6 6 6 7 7 5 
  6   6 4 6 4 5 5 7 
  7   6 6 4 7 7 7 7
;

param num_placed := 10;
param placed: 1 2 3 :=
  1   2 1 1 
  2   2 3 7 
  3   2 5 6 
  4   2 7 4 
  5   3 2 7 
  6   3 6 1 
  7   4 1 4 
  8   4 7 5 
  9   5 2 2 
 10   5 6 6
;
